p tw 594 817
1 2
1 158
1 159
3 4
3 159
3 160
5 6
5 140
5 141
7 8
7 141
7 142
9 10
9 164
9 165
11 12
11 107
11 108
13 14
13 165
13 166
15 16
15 173
15 174
17 18
17 174
17 175
19 20
19 108
19 109
21 22
21 110
21 111
23 24
23 111
23 112
25 26
25 122
25 123
27 28
27 123
27 124
29 30
29 143
29 144
31 32
31 144
31 145
33 34
33 149
33 150
35 36
35 193
37 38
37 128
37 129
39 40
39 150
39 151
41 42
41 125
41 126
43 44
43 126
43 127
45 46
45 198
47 48
47 152
47 153
49 50
49 153
49 154
51 52
51 131
51 132
53 54
53 132
53 133
55 56
55 129
55 130
57 58
57 146
57 147
59 60
59 205
61 62
61 116
61 117
63 64
63 117
63 118
65 66
65 147
65 148
67 68
67 161
67 162
69 70
69 162
69 163
71 72
71 211
73 74
73 113
73 114
75 76
75 114
75 115
77 78
77 137
77 138
79 80
79 170
79 171
81 82
81 216
83 84
83 138
83 139
85 86
85 171
85 172
87 88
87 155
87 156
89 90
89 156
89 157
91 92
91 167
91 168
93 94
93 168
93 169
95 96
95 134
95 135
97 98
97 135
97 136
99 100
99 119
99 120
101 102
101 120
101 121
103 104
103 227
105 106
105 228
107 108
107 181
108 109
109 185
110 111
110 186
111 112
112 187
113 114
113 212
114 115
115 213
116 117
116 206
117 118
118 207
119 120
119 225
120 121
121 226
122 123
122 188
123 124
124 189
125 126
125 196
126 127
127 197
128 129
128 194
129 130
130 203
131 132
131 201
132 133
133 202
134 135
134 223
135 136
136 224
137 138
137 214
138 139
139 217
140 141
140 178
141 142
142 179
143 144
143 190
144 145
145 191
146 147
146 204
147 148
148 208
149 150
149 192
150 151
151 195
152 153
152 199
153 154
154 200
155 156
155 219
156 157
157 220
158 159
158 176
159 160
160 177
161 162
161 209
162 163
163 210
164 165
164 180
165 166
166 182
167 168
167 221
168 169
169 222
170 171
170 215
171 172
172 218
173 174
173 183
174 175
175 184
176 265
176 266
177 241
177 242
178 242
178 243
179 295
179 296
180 296
180 297
181 266
181 267
182 289
182 290
183 232
183 233
184 306
185 262
185 263
186 263
186 264
187 268
187 269
188 269
188 270
189 290
189 291
190 312
191 253
191 254
192 233
192 234
193 256
193 257
194 254
194 255
195 274
195 275
196 275
196 276
197 283
197 284
198 284
198 285
199 257
199 258
200 286
200 287
201 287
201 288
202 280
202 281
203 281
203 282
204 326
205 292
205 293
206 271
206 272
207 329
208 244
208 245
209 245
209 246
210 235
210 236
211 236
211 237
212 293
212 294
213 259
213 260
214 260
214 261
215 272
215 273
216 247
216 248
217 238
217 239
218 229
218 230
219 230
219 231
220 250
220 251
221 251
221 252
222 248
222 249
223 345
224 277
224 278
225 278
225 279
226 239
226 240
227 349
228 350
229 230
229 340
230 231
231 341
232 233
232 305
233 234
234 314
235 236
235 332
236 237
237 333
238 239
238 339
239 240
240 348
241 242
241 299
242 243
243 300
244 245
244 330
245 246
246 331
247 248
247 338
248 249
249 344
250 251
250 342
251 252
252 343
253 254
253 313
254 255
255 316
256 257
256 315
257 258
258 321
259 260
259 335
260 261
261 336
262 263
262 307
263 264
264 308
265 266
265 298
266 267
267 303
268 269
268 309
269 270
270 310
271 272
271 328
272 273
273 337
274 275
274 317
275 276
276 318
277 278
277 346
278 279
279 347
280 281
280 324
281 282
282 325
283 284
283 319
284 285
285 320
286 287
286 322
287 288
288 323
289 290
289 304
290 291
291 311
292 293
292 327
293 294
294 334
295 296
295 301
296 297
297 302
298 396
298 397
299 375
299 376
300 376
300 377
301 417
301 418
302 418
302 419
303 397
303 398
304 426
305 363
305 364
306 360
306 361
307 361
307 362
308 430
309 405
309 406
310 432
311 411
311 412
312 412
312 413
313 378
313 379
314 364
314 365
315 406
315 407
316 379
316 380
317 402
317 403
318 403
318 404
319 357
319 358
320 351
320 352
321 352
321 353
322 444
323 387
323 388
324 408
324 409
325 409
325 410
326 358
326 359
327 388
327 389
328 399
328 400
329 372
329 373
330 373
330 374
331 453
332 393
332 394
333 384
333 385
334 385
334 386
335 390
335 391
336 391
336 392
337 400
337 401
338 394
338 395
339 369
339 370
340 354
340 355
341 355
341 356
342 414
342 415
343 465
344 366
344 367
345 367
345 368
346 381
346 382
347 469
348 370
348 371
349 415
349 416
350 382
350 383
351 352
351 442
352 353
353 443
354 355
354 462
355 356
356 463
357 358
357 441
358 359
359 448
360 361
360 428
361 362
362 429
363 364
363 427
364 365
365 436
366 367
366 466
367 368
368 467
369 370
369 461
370 371
371 470
372 373
372 451
373 374
374 452
375 376
375 421
376 377
377 422
378 379
378 435
379 380
380 438
381 382
381 468
382 383
383 472
384 385
384 455
385 386
386 456
387 388
387 445
388 389
389 449
390 391
390 457
391 392
392 458
393 394
393 454
394 395
395 460
396 397
396 420
397 398
398 425
399 400
399 450
400 401
401 459
402 403
402 439
403 404
404 440
405 406
405 431
406 407
407 437
408 409
408 446
409 410
410 447
411 412
411 433
412 413
413 434
414 415
414 464
415 416
416 471
417 418
417 423
418 419
419 424
420 524
420 525
421 525
421 526
422 506
422 507
423 507
423 508
424 530
424 531
425 473
425 474
426 531
426 532
427 539
427 540
428 540
428 541
429 474
429 475
430 476
430 477
431 477
431 478
432 488
432 489
433 489
433 490
434 509
434 510
435 510
435 511
436 515
436 516
437 559
438 494
438 495
439 516
439 517
440 491
440 492
441 492
441 493
442 564
443 518
443 519
444 519
444 520
445 497
445 498
446 498
446 499
447 495
447 496
448 512
448 513
449 571
450 482
450 483
451 483
451 484
452 513
452 514
453 527
453 528
454 528
454 529
455 577
456 479
456 480
457 480
457 481
458 503
458 504
459 536
459 537
460 582
461 504
461 505
462 537
462 538
463 521
463 522
464 522
464 523
465 533
465 534
466 534
466 535
467 500
467 501
468 501
468 502
469 485
469 486
470 486
470 487
471 593
472 594
473 474
473 547
474 475
475 551
476 477
476 552
477 478
478 553
479 480
479 578
480 481
481 579
482 483
482 572
483 484
484 573
485 486
485 591
486 487
487 592
488 489
488 554
489 490
490 555
491 492
491 562
492 493
493 563
494 495
494 560
495 496
496 569
497 498
497 567
498 499
499 568
500 501
500 589
501 502
502 590
503 504
503 580
504 505
505 583
506 507
506 544
507 508
508 545
509 510
509 556
510 511
511 557
512 513
512 570
513 514
514 574
515 516
515 558
516 517
517 561
518 519
518 565
519 520
520 566
521 522
521 585
522 523
523 586
524 525
524 542
525 526
526 543
527 528
527 575
528 529
529 576
530 531
530 546
531 532
532 548
533 534
533 587
534 535
535 588
536 537
536 581
537 538
538 584
539 540
539 549
540 541
541 550
